DIMACS2
80 423 414 252 316 145 254 573 173 498 500 340 143 330 118 11 345 364 516 58 103 50 320 359 494 353 115 568 347 382 408 298 86 81 96 33 578 83 547 134 88 71 602 199 395 44 273 8 519 114 403 5 601 394 105 2 154 324 551 479 230 539 430 365 98 14 132 572 506 243 334 508 390 410 370 169 76 194 371 3 15
p edge 640 1518
e 0 310 1.0
e 0 455 2.0
e 1 79 1.0
e 1 563 2.0
e 2 275 12.0
e 2 77 23.0
e 2 33 7.0
e 2 252 43.0
e 3 538 43.0
e 3 634 20.0
e 3 364 22.0
e 3 86 43.0
e 3 423 49.0
e 3 298 26.0
e 4 383 1.0
e 4 611 1.0
e 5 380 6.0
e 5 397 7.0
e 5 568 23.0
e 5 578 25.0
e 5 230 1.0
e 5 430 49.0
e 5 519 24.0
e 6 311 1.0
e 6 324 5.0
e 7 453 1.0
e 7 432 1.0
e 8 82 38.0
e 8 359 6.0
e 8 470 42.0
e 8 506 49.0
e 8 402 31.0
e 8 494 42.0
e 8 479 4.0
e 9 165 3.0
e 9 333 2.0
e 10 369 2.0
e 10 490 1.0
e 11 194 25.0
e 11 546 5.0
e 11 58 37.0
e 11 596 8.0
e 11 96 33.0
e 11 410 34.0
e 12 446 2.0
e 12 267 1.0
e 13 196 1.0
e 13 17 2.0
e 14 143 48.0
e 14 2 16.0
e 14 316 26.0
e 14 370 9.0
e 14 430 21.0
e 14 330 18.0
e 15 242 8.0
e 15 299 8.0
e 15 403 35.0
e 15 81 41.0
e 15 324 12.0
e 16 621 1.0
e 16 436 4.0
e 17 521 1.0
e 17 296 2.0
e 18 93 1.0
e 18 321 1.0
e 19 339 1.0
e 19 320 49.0
e 20 500 5.0
e 20 404 1.0
e 21 105 38.0
e 21 405 5.0
e 22 263 1.0
e 22 314 1.0
e 23 517 2.0
e 23 6 3.0
e 24 370 48.0
e 24 323 3.0
e 25 480 1.0
e 25 485 1.0
e 26 196 1.0
e 26 76 14.0
e 27 333 1.0
e 27 340 12.0
e 28 343 1.0
e 28 462 1.0
e 29 589 1.0
e 29 592 2.0
e 30 419 1.0
e 30 281 2.0
e 31 421 2.0
e 31 384 1.0
e 32 409 1.0
e 32 25 1.0
e 33 104 41.0
e 33 364 40.0
e 33 230 24.0
e 33 479 5.0
e 33 254 35.0
e 33 41 46.0
e 33 539 15.0
e 33 382 36.0
e 34 474 1.0
e 34 626 1.0
e 35 362 1.0
e 35 176 1.0
e 36 234 1.0
e 36 262 2.0
e 37 359 47.0
e 37 140 2.0
e 38 388 1.0
e 38 111 1.0
e 39 352 2.0
e 39 134 19.0
e 40 315 1.0
e 40 413 1.0
e 41 347 22.0
e 41 437 9.0
e 42 103 45.0
e 42 419 1.0
e 43 616 1.0
e 43 489 1.0
e 44 371 30.0
e 44 272 9.0
e 44 539 21.0
e 44 519 43.0
e 44 572 44.0
e 44 243 24.0
e 44 382 36.0
e 44 2 2.0
e 44 41 7.0
e 45 486 2.0
e 45 506 48.0
e 46 178 1.0
e 46 459 1.0
e 47 28 1.0
e 47 520 1.0
e 48 618 1.0
e 48 21 3.0
e 49 511 1.0
e 49 621 1.0
e 50 515 26.0
e 50 415 42.0
e 50 254 25.0
e 50 143 41.0
e 50 340 7.0
e 50 14 26.0
e 51 591 1.0
e 51 108 1.0
e 52 331 2.0
e 52 267 1.0
e 53 108 2.0
e 53 17 1.0
e 54 466 1.0
e 54 140 1.0
e 55 392 1.0
e 55 396 1.0
e 56 310 1.0
e 56 463 1.0
e 57 542 1.0
e 57 372 3.0
e 58 70 34.0
e 58 622 11.0
e 58 298 35.0
e 58 194 35.0
e 58 3 39.0
e 59 170 2.0
e 59 65 1.0
e 60 415 1.0
e 60 505 2.0
e 61 436 1.0
e 61 563 1.0
e 62 546 1.0
e 62 158 1.0
e 63 205 3.0
e 63 559 3.0
e 64 519 15.0
e 64 78 1.0
e 65 540 2.0
e 65 432 2.0
e 66 579 1.0
e 66 419 1.0
e 67 55 2.0
e 67 106 2.0
e 68 523 3.0
e 68 518 1.0
e 69 81 38.0
e 69 68 2.0
e 70 45 1.0
e 70 164 1.0
e 71 371 23.0
e 71 63 44.0
e 71 330 8.0
e 71 194 33.0
e 71 539 35.0
e 71 298 33.0
e 71 230 46.0
e 71 408 20.0
e 71 50 36.0
e 72 440 2.0
e 72 165 1.0
e 73 276 1.0
e 73 135 1.0
e 74 35 1.0
e 74 242 1.0
e 75 22 2.0
e 75 516 9.0
e 76 53 22.0
e 76 90 47.0
e 76 33 30.0
e 76 516 24.0
e 76 479 43.0
e 76 494 4.0
e 76 8 26.0
e 76 143 13.0
e 77 47 1.0
e 77 260 2.0
e 78 602 45.0
e 78 219 1.0
e 79 625 1.0
e 79 556 1.0
e 80 558 2.0
e 80 569 3.0
e 81 215 15.0
e 81 559 12.0
e 81 494 8.0
e 81 230 35.0
e 82 94 1.0
e 82 128 1.0
e 83 502 33.0
e 83 219 32.0
e 83 243 12.0
e 83 5 17.0
e 83 508 21.0
e 83 132 22.0
e 83 414 49.0
e 83 230 23.0
e 84 100 1.0
e 84 551 22.0
e 85 52 1.0
e 85 516 9.0
e 86 175 38.0
e 86 184 28.0
e 86 414 1.0
e 86 479 44.0
e 86 298 10.0
e 87 260 1.0
e 87 270 1.0
e 88 170 21.0
e 88 158 30.0
e 88 539 28.0
e 88 11 25.0
e 88 414 27.0
e 88 44 5.0
e 88 194 43.0
e 88 58 10.0
e 89 192 1.0
e 89 623 1.0
e 90 588 1.0
e 90 148 1.0
e 91 127 1.0
e 91 164 1.0
e 92 602 45.0
e 92 77 1.0
e 93 246 2.0
e 93 81 27.0
e 94 65 1.0
e 94 497 1.0
e 95 598 5.0
e 95 381 1.0
e 96 307 18.0
e 96 100 14.0
e 96 15 2.0
e 96 81 22.0
e 96 578 29.0
e 96 340 25.0
e 97 514 3.0
e 97 431 1.0
e 98 88 20.0
e 98 58 36.0
e 98 154 29.0
e 98 479 4.0
e 98 403 28.0
e 98 423 6.0
e 98 430 7.0
e 99 574 1.0
e 99 409 2.0
e 100 307 1.0
e 101 6 1.0
e 101 357 1.0
e 102 449 1.0
e 102 198 1.0
e 103 130 36.0
e 103 0 43.0
e 103 479 26.0
e 103 58 24.0
e 103 494 16.0
e 103 601 49.0
e 103 498 13.0
e 103 298 8.0
e 104 168 1.0
e 104 489 1.0
e 105 75 22.0
e 105 317 28.0
e 105 353 36.0
e 105 173 42.0
e 105 316 11.0
e 105 479 9.0
e 105 382 13.0
e 106 561 1.0
e 106 551 24.0
e 107 408 44.0
e 107 451 1.0
e 108 22 2.0
e 108 427 1.0
e 109 34 1.0
e 109 612 2.0
e 110 217 1.0
e 110 268 1.0
e 111 586 1.0
e 111 225 1.0
e 112 176 1.0
e 113 387 1.0
e 113 590 1.0
e 114 626 10.0
e 114 287 15.0
e 114 578 5.0
e 114 71 14.0
e 114 194 36.0
e 114 199 21.0
e 115 288 33.0
e 115 627 47.0
e 115 516 46.0
e 115 252 19.0
e 115 76 22.0
e 115 83 38.0
e 115 145 2.0
e 115 395 8.0
e 116 86 28.0
e 116 621 1.0
e 117 460 1.0
e 117 260 1.0
e 118 8 48.0
e 118 17 10.0
e 118 86 24.0
e 118 88 3.0
e 118 494 18.0
e 119 434 1.0
e 119 446 1.0
e 120 216 1.0
e 120 486 1.0
e 121 597 1.0
e 121 462 1.0
e 122 101 1.0
e 122 335 1.0
e 123 511 1.0
e 123 438 2.0
e 124 121 1.0
e 124 54 1.0
e 125 234 1.0
e 125 507 3.0
e 126 215 2.0
e 126 605 1.0
e 127 278 2.0
e 127 117 1.0
e 128 602 19.0
e 128 503 1.0
e 129 627 1.0
e 129 350 1.0
e 130 348 1.0
e 130 462 2.0
e 131 32 1.0
e 131 472 1.0
e 132 609 32.0
e 132 238 22.0
e 132 601 30.0
e 132 96 48.0
e 132 98 34.0
e 132 103 37.0
e 132 316 29.0
e 133 566 2.0
e 133 98 5.0
e 134 438 36.0
e 134 328 40.0
e 134 382 30.0
e 134 403 31.0
e 134 423 6.0
e 134 105 16.0
e 134 114 42.0
e 134 298 4.0
e 135 31 2.0
e 135 165 2.0
e 136 85 1.0
e 136 116 1.0
e 137 602 47.0
e 137 273 36.0
e 138 280 1.0
e 138 129 1.0
e 139 280 1.0
e 139 217 1.0
e 140 56 1.0
e 140 162 2.0
e 141 274 2.0
e 141 207 3.0
e 142 25 1.0
e 142 423 29.0
e 143 548 42.0
e 143 65 28.0
e 143 194 16.0
e 143 230 23.0
e 143 132 3.0
e 144 175 1.0
e 144 430 32.0
e 145 552 19.0
e 145 453 16.0
e 145 154 19.0
e 145 539 45.0
e 145 547 30.0
e 146 392 1.0
e 146 147 2.0
e 147 195 3.0
e 147 545 2.0
e 148 560 1.0
e 148 23 1.0
e 149 11 1.0
e 149 613 2.0
e 150 304 1.0
e 150 249 1.0
e 151 198 1.0
e 151 178 1.0
e 152 519 43.0
e 152 106 2.0
e 153 346 1.0
e 153 236 1.0
e 154 515 17.0
e 154 281 38.0
e 154 115 14.0
e 154 118 44.0
e 154 506 23.0
e 154 134 26.0
e 155 135 1.0
e 155 608 1.0
e 156 124 2.0
e 156 68 1.0
e 157 605 2.0
e 157 126 1.0
e 158 312 1.0
e 158 250 2.0
e 159 514 3.0
e 159 477 1.0
e 160 166 1.0
e 160 617 1.0
e 161 175 1.0
e 161 221 1.0
e 162 199 5.0
e 162 460 2.0
e 163 244 1.0
e 163 98 23.0
e 164 498 17.0
e 164 583 2.0
e 165 616 1.0
e 165 78 1.0
e 166 238 1.0
e 166 140 1.0
e 167 82 2.0
e 167 114 37.0
e 168 593 1.0
e 168 173 43.0
e 169 549 35.0
e 169 189 39.0
e 169 394 24.0
e 169 519 45.0
e 169 506 41.0
e 169 154 33.0
e 169 273 35.0
e 169 118 6.0
e 170 469 1.0
e 170 580 1.0
e 171 627 1.0
e 171 364 42.0
e 172 64 1.0
e 172 415 1.0
e 173 58 19.0
e 173 499 39.0
e 173 143 47.0
e 173 516 40.0
e 173 602 21.0
e 174 78 1.0
e 174 203 1.0
e 175 573 47.0
e 175 295 1.0
e 176 57 1.0
e 176 161 1.0
e 177 110 2.0
e 177 73 2.0
e 178 165 1.0
e 178 435 2.0
e 179 250 1.0
e 179 571 1.0
e 180 545 1.0
e 180 250 1.0
e 181 514 2.0
e 181 474 1.0
e 182 228 1.0
e 182 5 17.0
e 183 607 1.0
e 183 391 1.0
e 184 585 1.0
e 184 485 2.0
e 185 275 1.0
e 185 25 1.0
e 186 218 2.0
e 186 347 30.0
e 187 423 37.0
e 187 520 2.0
e 188 344 2.0
e 188 163 1.0
e 189 25 2.0
e 189 239 1.0
e 190 578 38.0
e 190 584 1.0
e 191 271 2.0
e 191 520 1.0
e 192 400 1.0
e 192 427 1.0
e 193 580 1.0
e 193 638 1.0
e 194 564 36.0
e 194 463 34.0
e 195 45 2.0
e 195 232 2.0
e 196 3 1.0
e 196 618 1.0
e 197 70 1.0
e 197 87 1.0
e 198 148 1.0
e 198 403 12.0
e 199 278 31.0
e 199 2 45.0
e 199 118 4.0
e 199 194 39.0
e 199 145 24.0
e 199 498 33.0
e 199 390 41.0
e 200 206 1.0
e 200 51 1.0
e 201 586 2.0
e 201 86 35.0
e 202 520 2.0
e 202 367 2.0
e 203 319 3.0
e 203 42 1.0
e 204 613 1.0
e 204 228 1.0
e 205 486 1.0
e 205 573 38.0
e 206 328 1.0
e 206 155 1.0
e 207 503 1.0
e 207 148 1.0
e 208 38 1.0
e 208 415 1.0
e 209 532 2.0
e 209 567 1.0
e 210 457 1.0
e 210 291 1.0
e 211 554 2.0
e 211 358 2.0
e 212 148 3.0
e 212 301 1.0
e 213 12 1.0
e 213 373 1.0
e 214 158 2.0
e 214 51 1.0
e 215 438 2.0
e 215 427 1.0
e 216 613 1.0
e 216 529 1.0
e 217 256 1.0
e 217 455 1.0
e 218 248 2.0
e 218 353 38.0
e 219 484 2.0
e 219 631 2.0
e 220 32 2.0
e 220 354 1.0
e 221 291 1.0
e 221 297 1.0
e 222 301 1.0
e 222 400 1.0
e 223 358 1.0
e 223 328 1.0
e 224 477 1.0
e 224 384 2.0
e 225 512 1.0
e 225 620 2.0
e 226 554 2.0
e 226 113 1.0
e 227 379 1.0
e 227 597 1.0
e 228 67 2.0
e 228 354 1.0
e 229 82 2.0
e 229 508 39.0
e 230 240 29.0
e 230 408 35.0
e 231 245 1.0
e 231 127 1.0
e 232 600 1.0
e 232 120 1.0
e 233 193 1.0
e 233 575 1.0
e 234 595 1.0
e 234 350 1.0
e 235 73 1.0
e 235 266 1.0
e 236 73 1.0
e 236 86 46.0
e 237 62 1.0
e 237 174 1.0
e 238 494 17.0
e 238 448 2.0
e 239 131 1.0
e 239 301 2.0
e 240 152 1.0
e 240 115 24.0
e 241 74 1.0
e 241 514 1.0
e 242 581 1.0
e 242 226 1.0
e 243 491 3.0
e 243 404 10.0
e 243 252 26.0
e 243 498 36.0
e 243 353 39.0
e 243 298 18.0
e 244 601 10.0
e 244 372 1.0
e 245 396 1.0
e 245 282 3.0
e 246 57 2.0
e 246 185 1.0
e 247 444 1.0
e 247 369 1.0
e 248 300 1.0
e 248 540 2.0
e 249 276 1.0
e 249 219 2.0
e 250 418 1.0
e 250 595 1.0
e 251 31 1.0
e 251 384 1.0
e 252 163 32.0
e 252 174 24.0
e 252 118 19.0
e 252 568 42.0
e 252 254 46.0
e 253 324 1.0
e 253 521 2.0
e 254 205 9.0
e 254 617 9.0
e 254 390 22.0
e 254 169 32.0
e 254 199 7.0
e 254 118 34.0
e 255 440 1.0
e 255 2 49.0
e 256 587 2.0
e 256 225 1.0
e 257 50 4.0
e 257 315 1.0
e 258 321 1.0
e 258 322 1.0
e 259 624 1.0
e 259 606 1.0
e 260 419 2.0
e 260 609 1.0
e 261 303 1.0
e 261 626 1.0
e 262 325 3.0
e 262 140 1.0
e 263 348 1.0
e 263 364 6.0
e 264 262 1.0
e 264 523 1.0
e 265 338 2.0
e 265 522 2.0
e 266 261 1.0
e 266 109 1.0
e 267 313 1.0
e 267 241 1.0
e 268 344 1.0
e 268 330 21.0
e 269 597 2.0
e 269 634 1.0
e 270 90 1.0
e 270 192 1.0
e 271 379 1.0
e 271 14 42.0
e 272 257 2.0
e 272 312 1.0
e 273 81 26.0
e 273 617 28.0
e 273 173 28.0
e 273 498 42.0
e 273 243 11.0
e 273 298 47.0
e 273 252 11.0
e 274 6 1.0
e 274 158 1.0
e 275 573 47.0
e 275 635 1.0
e 276 15 4.0
e 276 604 1.0
e 277 55 1.0
e 277 249 1.0
e 278 218 3.0
e 278 166 2.0
e 279 493 1.0
e 279 160 1.0
e 280 465 1.0
e 280 312 1.0
e 281 327 1.0
e 281 528 1.0
e 282 274 2.0
e 282 497 4.0
e 283 574 1.0
e 283 69 2.0
e 284 174 1.0
e 284 149 1.0
e 285 572 46.0
e 285 514 1.0
e 286 525 2.0
e 286 78 1.0
e 287 455 3.0
e 287 236 1.0
e 288 167 2.0
e 288 62 3.0
e 289 95 4.0
e 289 414 10.0
e 290 175 1.0
e 290 612 1.0
e 291 401 3.0
e 291 275 1.0
e 292 393 1.0
e 292 447 1.0
e 293 153 1.0
e 293 408 38.0
e 294 567 1.0
e 294 354 1.0
e 295 428 3.0
e 295 436 1.0
e 296 360 1.0
e 296 327 1.0
e 297 219 1.0
e 297 176 1.0
e 298 132 48.0
e 298 99 26.0
e 299 392 1.0
e 299 271 2.0
e 300 72 2.0
e 300 124 1.0
e 301 243 39.0
e 301 156 1.0
e 302 478 1.0
e 302 411 1.0
e 303 92 2.0
e 303 478 1.0
e 304 229 1.0
e 304 386 1.0
e 305 64 2.0
e 305 518 1.0
e 306 436 1.0
e 306 447 1.0
e 307 455 2.0
e 307 179 1.0
e 308 178 2.0
e 308 393 1.0
e 309 398 5.0
e 309 31 3.0
e 310 3 45.0
e 310 480 2.0
e 311 173 37.0
e 311 190 1.0
e 312 123 1.0
e 312 619 3.0
e 313 579 1.0
e 313 83 38.0
e 314 429 1.0
e 314 448 3.0
e 315 213 1.0
e 315 200 1.0
e 316 360 21.0
e 316 443 9.0
e 316 364 48.0
e 316 273 11.0
e 316 572 45.0
e 316 320 12.0
e 317 378 2.0
e 317 137 1.0
e 318 176 1.0
e 318 128 2.0
e 319 185 1.0
e 319 588 1.0
e 320 515 3.0
e 320 478 48.0
e 320 498 30.0
e 320 500 25.0
e 320 506 44.0
e 320 254 44.0
e 320 324 32.0
e 321 415 3.0
e 321 560 1.0
e 322 152 2.0
e 322 484 1.0
e 323 184 1.0
e 323 322 1.0
e 324 386 31.0
e 324 542 19.0
e 324 601 33.0
e 325 368 3.0
e 325 266 3.0
e 326 627 1.0
e 326 362 1.0
e 327 545 1.0
e 327 452 1.0
e 328 211 1.0
e 328 150 1.0
e 329 127 1.0
e 329 382 35.0
e 330 143 18.0
e 330 169 24.0
e 330 516 38.0
e 330 568 13.0
e 331 10 1.0
e 331 360 1.0
e 332 472 1.0
e 332 518 1.0
e 333 588 1.0
e 333 304 1.0
e 334 68 11.0
e 334 441 7.0
e 334 601 46.0
e 334 316 43.0
e 334 320 31.0
e 334 498 25.0
e 334 324 41.0
e 334 330 9.0
e 334 340 36.0
e 335 409 1.0
e 335 34 1.0
e 336 154 17.0
e 336 569 1.0
e 337 174 2.0
e 337 171 1.0
e 338 406 1.0
e 338 209 1.0
e 339 424 1.0
e 339 612 1.0
e 340 578 26.0
e 340 430 29.0
e 340 345 9.0
e 340 601 27.0
e 340 353 46.0
e 341 233 1.0
e 341 185 1.0
e 342 233 2.0
e 342 361 1.0
e 343 496 2.0
e 343 237 1.0
e 344 114 13.0
e 344 502 1.0
e 345 626 6.0
e 345 354 20.0
e 345 334 12.0
e 345 347 37.0
e 345 353 23.0
e 345 359 31.0
e 345 539 12.0
e 346 324 46.0
e 346 89 1.0
e 347 124 8.0
e 347 633 47.0
e 347 340 37.0
e 347 353 28.0
e 347 500 24.0
e 347 359 34.0
e 348 430 27.0
e 348 588 1.0
e 349 465 1.0
e 349 405 1.0
e 350 400 1.0
e 350 140 1.0
e 351 481 2.0
e 351 45 2.0
e 352 5 6.0
e 352 149 1.0
e 353 60 43.0
e 353 224 14.0
e 354 496 1.0
e 354 595 2.0
e 355 99 1.0
e 355 522 2.0
e 356 307 1.0
e 356 332 2.0
e 357 259 1.0
e 357 374 2.0
e 358 365 25.0
e 358 487 1.0
e 359 73 23.0
e 359 165 24.0
e 359 353 19.0
e 359 364 42.0
e 359 365 28.0
e 360 421 2.0
e 360 125 2.0
e 361 463 2.0
e 361 330 12.0
e 362 468 1.0
e 362 530 1.0
e 363 268 1.0
e 363 289 2.0
e 364 465 26.0
e 364 308 21.0
e 364 568 26.0
e 365 57 5.0
e 365 279 1.0
e 365 382 29.0
e 365 364 48.0
e 365 345 23.0
e 365 347 46.0
e 365 370 19.0
e 366 101 3.0
e 366 448 2.0
e 367 464 1.0
e 367 259 1.0
e 368 245 2.0
e 368 608 1.0
e 369 19 2.0
e 369 495 2.0
e 370 280 34.0
e 370 90 21.0
e 370 578 32.0
e 370 359 22.0
e 370 371 5.0
e 370 382 29.0
e 371 597 47.0
e 371 251 46.0
e 371 601 21.0
e 371 365 32.0
e 371 382 2.0
e 372 629 1.0
e 372 270 1.0
e 373 11 39.0
e 373 603 1.0
e 374 97 1.0
e 374 96 5.0
e 375 25 2.0
e 375 234 1.0
e 376 357 2.0
e 376 296 1.0
e 377 479 29.0
e 377 267 1.0
e 378 475 3.0
e 378 607 1.0
e 379 358 1.0
e 379 590 1.0
e 380 265 1.0
e 380 51 2.0
e 381 214 3.0
e 381 351 1.0
e 382 557 6.0
e 382 171 6.0
e 383 468 1.0
e 383 46 1.0
e 384 77 1.0
e 384 412 2.0
e 385 430 20.0
e 385 495 1.0
e 386 139 1.0
e 386 105 45.0
e 387 80 2.0
e 387 533 1.0
e 388 119 1.0
e 388 476 1.0
e 389 354 1.0
e 389 620 1.0
e 390 265 49.0
e 390 576 47.0
e 390 370 22.0
e 390 371 23.0
e 390 394 24.0
e 391 181 2.0
e 391 427 2.0
e 392 175 1.0
e 392 432 1.0
e 393 136 2.0
e 393 50 40.0
e 394 330 48.0
e 394 455 13.0
e 394 395 48.0
e 394 403 13.0
e 394 408 31.0
e 394 410 45.0
e 394 423 3.0
e 395 328 22.0
e 395 506 11.0
e 395 390 30.0
e 395 403 14.0
e 395 408 31.0
e 395 410 14.0
e 396 299 1.0
e 396 110 1.0
e 397 269 1.0
e 397 586 2.0
e 398 403 3.0
e 398 474 5.0
e 399 203 2.0
e 399 452 3.0
e 400 488 1.0
e 400 276 1.0
e 401 498 23.0
e 401 183 4.0
e 402 414 27.0
e 402 569 5.0
e 403 35 28.0
e 403 141 41.0
e 404 0 1.0
e 404 283 1.0
e 405 38 2.0
e 405 422 3.0
e 406 544 1.0
e 406 141 1.0
e 407 416 1.0
e 407 124 1.0
e 408 22 11.0
e 408 562 20.0
e 409 459 3.0
e 409 484 1.0
e 410 508 41.0
e 410 558 21.0
e 410 500 37.0
e 410 403 15.0
e 410 414 38.0
e 410 506 17.0
e 411 117 1.0
e 411 234 1.0
e 412 203 2.0
e 412 336 2.0
e 413 147 1.0
e 413 383 1.0
e 414 35 2.0
e 414 419 21.0
e 415 225 1.0
e 415 213 3.0
e 416 87 2.0
e 416 329 2.0
e 417 123 1.0
e 417 388 1.0
e 418 9 2.0
e 418 232 1.0
e 419 305 2.0
e 419 172 1.0
e 420 390 26.0
e 420 197 2.0
e 421 108 1.0
e 421 2 33.0
e 422 400 1.0
e 422 176 1.0
e 423 104 7.0
e 423 622 26.0
e 424 376 1.0
e 424 446 1.0
e 425 52 1.0
e 425 534 1.0
e 426 112 1.0
e 426 435 1.0
e 427 480 1.0
e 427 191 1.0
e 428 160 1.0
e 428 42 1.0
e 429 449 1.0
e 429 499 2.0
e 430 516 44.0
e 430 211 19.0
e 431 374 1.0
e 431 168 1.0
e 432 286 1.0
e 432 417 1.0
e 433 65 1.0
e 433 277 1.0
e 434 490 2.0
e 434 179 1.0
e 435 142 2.0
e 435 539 28.0
e 436 200 1.0
e 436 317 1.0
e 437 608 1.0
e 437 388 2.0
e 438 467 2.0
e 438 150 2.0
e 439 538 1.0
e 439 75 1.0
e 440 244 1.0
e 440 192 1.0
e 441 263 1.0
e 441 281 2.0
e 442 215 1.0
e 442 82 1.0
e 443 222 3.0
e 443 607 1.0
e 444 616 1.0
e 444 167 1.0
e 445 212 1.0
e 445 336 1.0
e 446 342 1.0
e 446 589 2.0
e 447 3 8.0
e 447 549 1.0
e 448 11 15.0
e 448 620 1.0
e 449 8 23.0
e 449 554 2.0
e 450 502 1.0
e 450 413 1.0
e 451 260 1.0
e 451 422 2.0
e 452 96 32.0
e 452 368 5.0
e 453 2 21.0
e 453 604 1.0
e 454 586 1.0
e 454 423 46.0
e 455 164 2.0
e 455 26 1.0
e 456 206 1.0
e 456 178 1.0
e 457 136 1.0
e 457 389 1.0
e 458 538 1.0
e 458 509 1.0
e 459 637 1.0
e 459 62 1.0
e 460 241 1.0
e 460 238 1.0
e 461 314 1.0
e 461 90 1.0
e 462 12 1.0
e 462 611 1.0
e 463 329 1.0
e 463 183 2.0
e 464 203 3.0
e 464 345 15.0
e 465 32 1.0
e 465 66 2.0
e 466 234 1.0
e 466 376 2.0
e 467 125 1.0
e 467 323 1.0
e 468 69 1.0
e 468 375 1.0
e 469 37 2.0
e 469 120 1.0
e 470 551 25.0
e 470 460 2.0
e 471 275 1.0
e 471 525 1.0
e 472 292 1.0
e 472 84 1.0
e 473 142 1.0
e 473 274 1.0
e 474 246 2.0
e 474 274 3.0
e 475 552 1.0
e 475 366 1.0
e 476 1 1.0
e 476 145 12.0
e 477 166 1.0
e 477 454 1.0
e 478 354 1.0
e 478 445 1.0
e 479 535 34.0
e 479 82 16.0
e 480 593 1.0
e 480 279 1.0
e 481 82 1.0
e 481 408 34.0
e 482 232 1.0
e 482 119 2.0
e 483 181 1.0
e 483 55 1.0
e 484 454 1.0
e 484 584 1.0
e 485 78 2.0
e 485 148 1.0
e 486 78 2.0
e 486 107 1.0
e 487 415 1.0
e 487 631 1.0
e 488 445 2.0
e 488 252 3.0
e 489 637 1.0
e 489 528 1.0
e 490 208 2.0
e 490 54 1.0
e 491 286 1.0
e 491 168 1.0
e 492 346 1.0
e 492 357 2.0
e 493 417 2.0
e 493 337 2.0
e 494 627 48.0
e 494 185 33.0
e 495 383 1.0
e 495 363 1.0
e 496 240 1.0
e 496 81 49.0
e 497 99 1.0
e 497 474 1.0
e 498 31 10.0
e 498 200 31.0
e 499 308 2.0
e 499 605 2.0
e 500 282 45.0
e 500 280 22.0
e 500 578 8.0
e 500 506 17.0
e 501 271 2.0
e 501 567 1.0
e 502 371 41.0
e 502 18 1.0
e 503 494 28.0
e 503 17 2.0
e 504 552 1.0
e 504 56 1.0
e 505 148 2.0
e 505 490 2.0
e 506 54 41.0
e 506 200 19.0
e 507 145 45.0
e 507 375 6.0
e 508 582 43.0
e 508 299 41.0
e 508 394 21.0
e 508 414 46.0
e 508 395 13.0
e 508 601 14.0
e 509 47 1.0
e 509 629 1.0
e 510 319 3.0
e 510 550 1.0
e 511 141 1.0
e 511 82 1.0
e 512 110 2.0
e 512 408 4.0
e 513 343 2.0
e 513 102 1.0
e 514 348 1.0
e 514 500 7.0
e 515 117 1.0
e 515 295 1.0
e 516 84 36.0
e 516 110 13.0
e 517 438 3.0
e 517 457 2.0
e 518 396 1.0
e 518 565 1.0
e 519 286 47.0
e 519 404 22.0
e 520 420 2.0
e 520 519 47.0
e 521 174 1.0
e 521 444 2.0
e 522 312 1.0
e 522 271 1.0
e 523 137 1.0
e 523 233 1.0
e 524 459 3.0
e 524 106 1.0
e 525 591 3.0
e 525 459 1.0
e 526 357 1.0
e 526 436 1.0
e 527 184 1.0
e 527 206 1.0
e 528 279 5.0
e 529 233 1.0
e 529 452 6.0
e 530 52 1.0
e 530 50 6.0
e 531 207 1.0
e 531 209 1.0
e 532 621 2.0
e 532 628 1.0
e 533 631 1.0
e 533 406 2.0
e 534 66 1.0
e 534 637 1.0
e 535 177 1.0
e 535 244 1.0
e 536 62 1.0
e 536 396 1.0
e 537 163 1.0
e 537 228 1.0
e 538 189 1.0
e 538 387 1.0
e 539 440 17.0
e 539 14 11.0
e 540 7 2.0
e 540 15 7.0
e 541 473 3.0
e 541 486 2.0
e 542 438 2.0
e 542 525 1.0
e 543 321 2.0
e 543 550 1.0
e 544 25 1.0
e 545 213 1.0
e 545 634 1.0
e 546 261 1.0
e 546 367 1.0
e 547 614 4.0
e 547 119 7.0
e 547 500 12.0
e 547 410 33.0
e 547 508 8.0
e 548 541 1.0
e 548 433 1.0
e 549 461 2.0
e 549 129 1.0
e 550 625 1.0
e 550 170 2.0
e 551 632 8.0
e 551 325 23.0
e 551 516 12.0
e 551 539 46.0
e 551 547 27.0
e 551 568 45.0
e 552 634 1.0
e 552 39 2.0
e 553 192 1.0
e 553 272 1.0
e 554 248 1.0
e 554 9 1.0
e 555 350 1.0
e 555 414 39.0
e 556 336 4.0
e 556 240 1.0
e 557 418 2.0
e 557 396 2.0
e 558 307 1.0
e 558 55 2.0
e 559 430 38.0
e 559 465 2.0
e 560 124 2.0
e 560 545 1.0
e 561 547 2.0
e 561 228 2.0
e 562 94 1.0
e 562 237 1.0
e 563 99 1.0
e 563 324 37.0
e 564 420 2.0
e 564 490 1.0
e 565 173 47.0
e 565 147 1.0
e 566 56 1.0
e 566 423 38.0
e 567 264 1.0
e 567 413 1.0
e 568 299 28.0
e 568 590 2.0
e 568 572 32.0
e 568 573 15.0
e 569 281 3.0
e 569 446 2.0
e 570 486 1.0
e 570 177 1.0
e 571 341 1.0
e 571 538 2.0
e 572 467 25.0
e 572 547 13.0
e 572 551 44.0
e 572 573 33.0
e 572 578 29.0
e 573 16 39.0
e 573 546 11.0
e 573 602 14.0
e 574 636 1.0
e 574 142 1.0
e 575 283 1.0
e 575 262 1.0
e 576 615 2.0
e 576 476 1.0
e 577 338 3.0
e 577 177 1.0
e 578 505 38.0
e 578 85 16.0
e 579 567 2.0
e 579 547 45.0
e 580 362 2.0
e 580 191 1.0
e 581 85 1.0
e 581 130 1.0
e 582 188 1.0
e 582 15 13.0
e 583 336 5.0
e 583 137 1.0
e 584 114 22.0
e 584 512 1.0
e 585 459 1.0
e 585 78 2.0
e 586 274 1.0
e 586 4 1.0
e 587 635 1.0
e 587 301 1.0
e 588 476 2.0
e 588 237 1.0
e 589 535 2.0
e 589 599 1.0
e 590 491 1.0
e 591 153 1.0
e 591 478 2.0
e 592 395 45.0
e 592 552 1.0
e 593 80 1.0
e 593 244 1.0
e 594 14 25.0
e 594 387 1.0
e 595 338 2.0
e 595 612 1.0
e 596 353 14.0
e 596 250 5.0
e 597 287 1.0
e 597 576 1.0
e 598 145 24.0
e 598 545 5.0
e 599 637 1.0
e 600 505 2.0
e 600 97 2.0
e 601 194 6.0
e 601 67 15.0
e 602 447 14.0
e 602 220 35.0
e 602 568 6.0
e 603 409 1.0
e 603 55 1.0
e 604 60 1.0
e 604 543 1.0
e 605 230 37.0
e 605 537 1.0
e 606 289 4.0
e 606 531 1.0
e 607 451 2.0
e 607 599 2.0
e 608 389 1.0
e 608 190 1.0
e 609 148 1.0
e 609 494 29.0
e 610 519 46.0
e 610 272 2.0
e 611 339 1.0
e 611 492 1.0
e 612 360 3.0
e 612 446 1.0
e 613 281 1.0
e 613 541 1.0
e 614 446 1.0
e 614 123 1.0
e 615 290 2.0
e 615 315 1.0
e 616 603 1.0
e 616 40 1.0
e 617 360 1.0
e 617 241 1.0
e 618 200 1.0
e 618 616 1.0
e 619 69 2.0
e 619 372 1.0
e 620 390 48.0
e 620 239 2.0
e 621 361 2.0
e 621 619 2.0
e 622 323 1.0
e 622 366 1.0
e 623 16 2.0
e 623 277 1.0
e 624 309 2.0
e 624 478 1.0
e 625 439 1.0
e 625 513 1.0
e 626 158 1.0
e 626 586 1.0
e 627 392 1.0
e 627 519 48.0
e 628 230 40.0
e 628 630 2.0
e 629 553 2.0
e 629 156 1.0
e 630 584 1.0
e 630 536 1.0
e 631 269 1.0
e 631 558 2.0
e 632 616 1.0
e 632 400 1.0
e 633 333 5.0
e 633 378 4.0
e 634 564 1.0
e 634 15 30.0
e 635 174 1.0
e 635 543 1.0
e 636 467 3.0
e 636 625 1.0
e 637 540 1.0
e 637 293 1.0
e 638 90 1.0
e 638 54 2.0
e 639 406 1.0
e 639 116 1.0
